(set-info :smt-lib-version 2.6)
(set-logic QF_UF)
(set-info :source |
Generated by: David Deharbe, CLEARSY
Generated on: 2019-09-09
Generator: bxml;pog;pog2smt (Atelier B)
Application: B-method
Target solver: CVC4, Z3
|)
(set-info :license "https://creativecommons.org/licenses/by-nc/4.0/")
(set-info :category "industrial")
(set-info :status unknown)
; Prelude
(declare-sort U 0)
(declare-fun |*i| (U U) U)
(declare-fun |+i| (U U) U)
(declare-fun |-i| (U U) U)
(declare-fun idiv (U U) U)
(declare-fun |*r| (U U) U)
(declare-fun |+r| (U U) U)
(declare-fun |-r| (U U) U)
(declare-fun rdiv (U U) U)
(declare-fun modulo (U U) U)
(declare-fun |<i| (U U) Bool)
(declare-fun |<=i| (U U) Bool)
(declare-fun |>i| (U U) Bool)
(declare-fun |>=i| (U U) Bool)
(declare-fun |<r| (U U) Bool)
(declare-fun |<=r| (U U) Bool)
(declare-fun |>r| (U U) Bool)
(declare-fun |>=r| (U U) Bool)
(declare-fun iuminus (U) U)
(declare-fun ruminus (U) U)
(declare-fun TRUE () U)
(declare-fun FALSE () U)
(assert (not (= TRUE FALSE)))
(declare-fun empty () U)
(declare-fun bool (Bool) U)
(declare-fun BOOL () U)
(declare-fun INT () U)
(declare-fun INTEGER () U)
(declare-fun NAT () U)
(declare-fun NAT1 () U)
(declare-fun NATURAL () U)
(declare-fun NATURAL1 () U)
(declare-fun FLOAT () U)
(declare-fun MaxInt () U)
(declare-fun MinInt () U)
(declare-fun |STRING| () U)
(declare-fun REAL () U)
(declare-fun set_prod (U U) U)
(declare-fun set_diff (U U) U)
(declare-fun mapplet (U U) U)
(declare-fun |**i| (U U) U)
(declare-fun |**r| (U U) U)
(declare-fun |+->| (U U) U)
(declare-fun |+->>| (U U) U)
(declare-fun |-->| (U U) U)
(declare-fun |-->>| (U U) U)
(declare-fun |<->| (U U) U)
(declare-fun |>+>| (U U) U)
(declare-fun |>->| (U U) U)
(declare-fun |>+>>| (U U) U)
(declare-fun |>->>| (U U) U)
(declare-fun |->| (U U) U)
(declare-fun interval (U U) U)
(declare-fun composition (U U) U)
(declare-fun binary_inter (U U) U)
(declare-fun restriction_head (U U) U)
(declare-fun semicolon (U U) U)
(declare-fun |<+| (U U) U)
(declare-fun |<-| (U U) U)
(declare-fun domain_subtraction (U U) U)
(declare-fun domain_restriction (U U) U)
(declare-fun |><| (U U) U)
(declare-fun parallel_product (U U) U)
(declare-fun binary_union (U U) U)
(declare-fun restriction_tail (U U) U)
(declare-fun concatenate (U U) U)
(declare-fun range_restriction (U U) U)
(declare-fun range_subtraction (U U) U)
(declare-fun image (U U) U)
(declare-fun apply (U U) U)
(declare-fun prj1 (U U) U)
(declare-fun prj2 (U U) U)
(declare-fun iterate (U U) U)
(declare-fun |const| (U U) U)
(declare-fun rank (U U) U)
(declare-fun father (U U) U)
(declare-fun subtree (U U) U)
(declare-fun arity (U U) U)
(declare-fun |+f| (U U) U)
(declare-fun |-f| (U U) U)
(declare-fun |*f| (U U) U)
(declare-fun |fdiv| (U U) U)
(declare-fun tbin (U U U) U)
(declare-fun son (U U U) U)
(declare-fun mem (U U) Bool)
(declare-fun subset (U U) Bool)
(declare-fun strict_subset (U U) Bool)
(declare-fun |<=f| (U U) Bool)
(declare-fun |<f| (U U) Bool)
(declare-fun |>=f| (U U) Bool)
(declare-fun |>f| (U U) Bool)
(declare-fun imax (U) U)
(declare-fun imin (U) U)
(declare-fun rmax (U) U)
(declare-fun rmin (U) U)
(declare-fun card (U) U)
(declare-fun dom (U) U)
(declare-fun ran (U) U)
(declare-fun POW (U) U)
(declare-fun POW1 (U) U)
(declare-fun FIN (U) U)
(declare-fun FIN1 (U) U)
(declare-fun union (U) U)
(declare-fun inter (U) U)
(declare-fun seq (U) U)
(declare-fun seq1 (U) U)
(declare-fun iseq (U) U)
(declare-fun iseq1 (U) U)
(declare-fun inverse (U) U)
(declare-fun size (U) U)
(declare-fun perm (U) U)
(declare-fun first (U) U)
(declare-fun last (U) U)
(declare-fun id (U) U)
(declare-fun closure (U) U)
(declare-fun closure1 (U) U)
(declare-fun tail (U) U)
(declare-fun front (U) U)
(declare-fun reverse (U) U)
(declare-fun rev (U) U)
(declare-fun conc (U) U)
(declare-fun succ (U) U)
(declare-fun pred (U) U)
(declare-fun rel (U) U)
(declare-fun fnc (U) U)
(declare-fun real (U) U)
(declare-fun floor (U) U)
(declare-fun ceiling (U) U)
(declare-fun tree (U) U)
(declare-fun btree (U) U)
(declare-fun top (U) U)
(declare-fun sons (U) U)
(declare-fun prefix (U) U)
(declare-fun postfix (U) U)
(declare-fun sizet (U) U)
(declare-fun mirror (U) U)
(declare-fun left (U) U)
(declare-fun right (U) U)
(declare-fun infix (U) U)
(declare-fun ubin (U) U)
(declare-fun SEQ (U) U)
(declare-fun SET (U) U)
; Opaque formulas
(declare-fun e178 () U)
(declare-fun e0 () U)
(declare-fun e54 () U)
(declare-fun e51 () U)
(declare-fun e53 () U)
(declare-fun g_s0_1 () U)
(declare-fun g_s1_2 () U)
(declare-fun g_s10_11 () U)
(declare-fun g_s100_104 () U)
(declare-fun g_s101_105 () U)
(declare-fun g_s102_106 () U)
(declare-fun g_s103_107 () U)
(declare-fun g_s104_109 () U)
(declare-fun g_s105_108 () U)
(declare-fun g_s106_110 () U)
(declare-fun g_s107_111 () U)
(declare-fun g_s108_112 () U)
(declare-fun g_s109_113 () U)
(declare-fun g_s11_12 () U)
(declare-fun g_s110_114 () U)
(declare-fun g_s111_115 () U)
(declare-fun g_s112_116 () U)
(declare-fun g_s113_117 () U)
(declare-fun g_s114_118 () U)
(declare-fun g_s115_119 () U)
(declare-fun g_s116_120 () U)
(declare-fun g_s117_121 () U)
(declare-fun g_s118_122 () U)
(declare-fun g_s119_123 () U)
(declare-fun g_s12_13 () U)
(declare-fun g_s120_124 () U)
(declare-fun g_s121_125 () U)
(declare-fun g_s122_126 () U)
(declare-fun g_s123_127 () U)
(declare-fun g_s124_128 () U)
(declare-fun g_s125_129 () U)
(declare-fun g_s126_130 () U)
(declare-fun g_s127_131 () U)
(declare-fun g_s128_132 () U)
(declare-fun g_s129_133 () U)
(declare-fun g_s13_14 () U)
(declare-fun g_s130_134 () U)
(declare-fun g_s131_135 () U)
(declare-fun g_s132_136 () U)
(declare-fun g_s133_138 () U)
(declare-fun g_s134_137 () U)
(declare-fun g_s135_139 () U)
(declare-fun g_s136_140 () U)
(declare-fun g_s137_141 () U)
(declare-fun g_s138_142 () U)
(declare-fun g_s139_143 () U)
(declare-fun g_s14_15 () U)
(declare-fun g_s140_144 () U)
(declare-fun g_s141_145 () U)
(declare-fun g_s142_146 () U)
(declare-fun g_s143_147 () U)
(declare-fun g_s144_148 () U)
(declare-fun g_s145_149 () U)
(declare-fun g_s146_150 () U)
(declare-fun g_s147_151 () U)
(declare-fun g_s148_152 () U)
(declare-fun g_s149_153 () U)
(declare-fun g_s15_16 () U)
(declare-fun g_s150_154 () U)
(declare-fun g_s151_155 () U)
(declare-fun g_s152_156 () U)
(declare-fun g_s153_157 () U)
(declare-fun g_s154_158 () U)
(declare-fun g_s155_159 () U)
(declare-fun g_s156_160 () U)
(declare-fun g_s157_161 () U)
(declare-fun g_s158_162 () U)
(declare-fun g_s159_163 () U)
(declare-fun g_s16_17 () U)
(declare-fun g_s160_164 () U)
(declare-fun g_s161_165 () U)
(declare-fun g_s162_166 () U)
(declare-fun g_s163_167 () U)
(declare-fun g_s164_168 () U)
(declare-fun g_s165_169 () U)
(declare-fun g_s166_170 () U)
(declare-fun g_s167_171 () U)
(declare-fun g_s168_172 () U)
(declare-fun g_s169_173 () U)
(declare-fun g_s17_18 () U)
(declare-fun g_s170_174 () U)
(declare-fun g_s171_175 () U)
(declare-fun g_s172_176 () U)
(declare-fun g_s173_177 () U)
(declare-fun g_s174_179 () U)
(declare-fun g_s175_180 () U)
(declare-fun g_s176_181 () U)
(declare-fun g_s177_182 () U)
(declare-fun g_s178_183 () U)
(declare-fun g_s179_184 () U)
(declare-fun g_s18_19 () U)
(declare-fun g_s180_185 () U)
(declare-fun g_s181_186 () U)
(declare-fun g_s182_187 () U)
(declare-fun g_s183_188 () U)
(declare-fun g_s184_189 () U)
(declare-fun g_s185_190 () U)
(declare-fun g_s186_191 () U)
(declare-fun g_s187_192 () U)
(declare-fun g_s188_193 () U)
(declare-fun g_s19_20 () U)
(declare-fun g_s193_195 () U)
(declare-fun g_s194_197 () U)
(declare-fun g_s195_199 () U)
(declare-fun g_s196_201 () U)
(declare-fun g_s197_202 () U)
(declare-fun g_s198_203 () U)
(declare-fun g_s199_204 () U)
(declare-fun g_s2_3 () U)
(declare-fun g_s20_21 () U)
(declare-fun g_s200_205 () U)
(declare-fun g_s202_206 () U)
(declare-fun g_s203_207 () U)
(declare-fun g_s204_208 () U)
(declare-fun g_s205_214 () U)
(declare-fun g_s205_212 () U)
(declare-fun g_s205_213 () U)
(declare-fun g_s205_209 () U)
(declare-fun g_s206_210 () U)
(declare-fun g_s209_211 () U)
(declare-fun g_s21_22 () U)
(declare-fun g_s22_23 () U)
(declare-fun g_s23_24 () U)
(declare-fun g_s24_25 () U)
(declare-fun g_s25_26 () U)
(declare-fun g_s26_27 () U)
(declare-fun g_s27_28 () U)
(declare-fun g_s28_29 () U)
(declare-fun g_s29_30 () U)
(declare-fun g_s3_4 () U)
(declare-fun g_s30_31 () U)
(declare-fun g_s31_32 () U)
(declare-fun g_s32_33 () U)
(declare-fun g_s33_34 () U)
(declare-fun g_s34_35 () U)
(declare-fun g_s35_36 () U)
(declare-fun g_s36_37 () U)
(declare-fun g_s37_38 () U)
(declare-fun g_s38_39 () U)
(declare-fun g_s39_40 () U)
(declare-fun g_s4_5 () U)
(declare-fun g_s40_41 () U)
(declare-fun g_s41_42 () U)
(declare-fun g_s42_43 () U)
(declare-fun g_s43_44 () U)
(declare-fun g_s44_45 () U)
(declare-fun g_s45_46 () U)
(declare-fun g_s46_47 () U)
(declare-fun g_s47_48 () U)
(declare-fun g_s48_49 () U)
(declare-fun g_s49_50 () U)
(declare-fun g_s5_6 () U)
(declare-fun g_s50_52 () U)
(declare-fun g_s51_55 () U)
(declare-fun g_s52_56 () U)
(declare-fun g_s53_57 () U)
(declare-fun g_s54_58 () U)
(declare-fun g_s55_59 () U)
(declare-fun g_s56_60 () U)
(declare-fun g_s57_61 () U)
(declare-fun g_s58_62 () U)
(declare-fun g_s59_63 () U)
(declare-fun g_s6_7 () U)
(declare-fun g_s60_64 () U)
(declare-fun g_s61_65 () U)
(declare-fun g_s62_66 () U)
(declare-fun g_s63_67 () U)
(declare-fun g_s64_68 () U)
(declare-fun g_s65_69 () U)
(declare-fun g_s66_70 () U)
(declare-fun g_s67_71 () U)
(declare-fun g_s68_72 () U)
(declare-fun g_s69_73 () U)
(declare-fun g_s7_8 () U)
(declare-fun g_s70_74 () U)
(declare-fun g_s71_75 () U)
(declare-fun g_s72_77 () U)
(declare-fun g_s73_76 () U)
(declare-fun g_s74_78 () U)
(declare-fun g_s75_79 () U)
(declare-fun g_s76_80 () U)
(declare-fun g_s77_81 () U)
(declare-fun g_s78_82 () U)
(declare-fun g_s79_83 () U)
(declare-fun g_s8_9 () U)
(declare-fun g_s80_84 () U)
(declare-fun g_s81_85 () U)
(declare-fun g_s82_86 () U)
(declare-fun g_s83_87 () U)
(declare-fun g_s84_88 () U)
(declare-fun g_s85_89 () U)
(declare-fun g_s86_90 () U)
(declare-fun g_s87_92 () U)
(declare-fun g_s88_91 () U)
(declare-fun g_s89_93 () U)
(declare-fun g_s9_10 () U)
(declare-fun g_s90_94 () U)
(declare-fun g_s91_95 () U)
(declare-fun g_s92_96 () U)
(declare-fun g_s93_97 () U)
(declare-fun g_s94_98 () U)
(declare-fun g_s95_99 () U)
(declare-fun g_s96_100 () U)
(declare-fun g_s97_101 () U)
(declare-fun g_s98_102 () U)
(declare-fun g_s99_103 () U)
(declare-fun e194 () U)
(declare-fun e196 () U)
(declare-fun e198 () U)
(declare-fun e200 () U)
; Defines
(define-fun |def_B definitions| () Bool (and (= NAT (interval e0 MaxInt)) (= INT (interval MinInt MaxInt))))
(define-fun |def_ctx| () Bool (and (= g_s0_1 (SET (mapplet g_s2_3 g_s1_2))) (= g_s3_4 (SET (mapplet g_s19_20 (mapplet g_s18_19 (mapplet g_s17_18 (mapplet g_s16_17 (mapplet g_s15_16 (mapplet g_s14_15 (mapplet g_s13_14 (mapplet g_s12_13 (mapplet g_s11_12 (mapplet g_s10_11 (mapplet g_s9_10 (mapplet g_s8_9 (mapplet g_s7_8 (mapplet g_s6_7 (mapplet g_s5_6 g_s4_5))))))))))))))))) (not (= g_s20_21 empty)) (not (= g_s21_22 empty)) (not (= g_s22_23 empty)) (not (= g_s23_24 empty)) (not (= g_s24_25 empty)) (not (= g_s25_26 empty)) (not (= g_s26_27 empty)) (not (= g_s27_28 empty)) (not (= g_s28_29 empty)) (subset g_s29_30 g_s20_21) (subset g_s30_31 g_s21_22) (subset g_s31_32 g_s27_28) (subset g_s32_33 g_s22_23) (mem g_s33_34 g_s22_23) (mem g_s33_34 g_s32_33) (mem g_s34_35 g_s22_23) (not (mem g_s34_35 g_s32_33)) (subset g_s35_36 g_s23_24) (mem g_s36_37 g_s23_24) (mem g_s36_37 g_s35_36) (mem g_s37_38 g_s23_24) (not (mem g_s37_38 g_s35_36)) (subset g_s38_39 g_s24_25) (mem g_s39_40 g_s24_25) (mem g_s39_40 g_s38_39) (mem g_s40_41 g_s24_25) (not (mem g_s40_41 g_s38_39)) (subset g_s41_42 g_s25_26) (mem g_s42_43 g_s25_26) (mem g_s42_43 g_s41_42) (mem g_s43_44 g_s25_26) (not (mem g_s43_44 g_s41_42)) (subset g_s44_45 g_s26_27) (mem g_s45_46 g_s20_21) (not (mem g_s45_46 g_s29_30)) (mem g_s46_47 g_s21_22) (not (mem g_s46_47 g_s30_31)) (subset g_s47_48 g_s28_29) (mem g_s48_49 g_s28_29) (not (mem g_s48_49 g_s47_48)) (mem g_s49_50 g_s28_29) (mem g_s49_50 g_s47_48) (= g_s50_52 (SET (mapplet e51 e0))) (= g_s51_55 (interval e54 e53)) (mem g_s52_56 (perm g_s29_30)) (|>=i| (size g_s52_56) e54) (|<i| (size g_s52_56) MaxInt) (mem g_s53_57 (perm g_s30_31)) (|>=i| (size g_s53_57) e54) (|<i| (size g_s53_57) MaxInt) (mem g_s54_58 (|>->>| g_s30_31 g_s29_30)) (= g_s54_58 (composition (inverse g_s53_57) g_s52_56)) (mem g_s55_59 (perm g_s32_33)) (|<i| (size g_s55_59) MaxInt) (mem g_s56_60 (perm g_s35_36)) (|<i| (size g_s56_60) MaxInt) (mem g_s57_61 (|>->>| g_s32_33 g_s35_36)) (= g_s57_61 (composition (inverse g_s55_59) g_s56_60)) (mem g_s58_62 (perm g_s38_39)) (|<i| (size g_s58_62) MaxInt) (mem g_s59_63 (perm g_s41_42)) (|<i| (size g_s59_63) MaxInt) (mem g_s60_64 (|>->>| g_s41_42 g_s38_39)) (= g_s60_64 (composition (inverse g_s59_63) g_s58_62)) (mem g_s61_65 (perm g_s31_32)) (|<i| (size g_s61_65) MaxInt) (mem g_s62_66 (perm g_s44_45)) (|<i| (size g_s62_66) MaxInt) (mem g_s63_67 (perm g_s47_48)) (= g_s64_68 (|-->| g_s22_23 g_s24_25)) (mem g_s65_69 g_s64_68) (= g_s65_69 (set_prod g_s22_23 (SET g_s40_41))) (= g_s66_70 (|-->| g_s25_26 g_s28_29)) (mem g_s67_71 g_s66_70) (= g_s67_71 (set_prod g_s25_26 (SET g_s48_49))) (= g_s68_72 (|-->| g_s28_29 g_s28_29)) (mem g_s69_73 g_s68_72) (= g_s69_73 (set_prod g_s28_29 (SET g_s48_49))) (= g_s70_74 (|-->| g_s28_29 g_s23_24)) (mem g_s71_75 g_s70_74) (= g_s71_75 (set_prod g_s28_29 (SET g_s37_38))) (= g_s72_77 (|-->| g_s20_21 g_s73_76)) (mem g_s74_78 g_s72_77) (= g_s75_79 (|-->| g_s20_21 g_s20_21)) (mem g_s76_80 g_s75_79) (= g_s76_80 (set_prod g_s20_21 (SET g_s45_46))) (= g_s77_81 (|-->| g_s21_22 g_s21_22)) (mem g_s78_82 g_s77_81) (= g_s78_82 (set_prod g_s21_22 (SET g_s46_47))) (= g_s79_83 (|-->| g_s21_22 g_s20_21)) (mem g_s80_84 g_s79_83) (= g_s80_84 (set_prod g_s21_22 (SET g_s45_46))) (= g_s81_85 (|-->| g_s21_22 g_s23_24)) (mem g_s82_86 g_s81_85) (= g_s82_86 (set_prod g_s21_22 (SET g_s37_38))) (= g_s83_87 (|-->| g_s26_27 g_s20_21)) (mem g_s84_88 g_s83_87) (= g_s84_88 (set_prod g_s26_27 (SET g_s45_46))) (= g_s85_89 (|-->| g_s26_27 g_s24_25)) (mem g_s86_90 g_s85_89) (= g_s86_90 (set_prod g_s26_27 (SET g_s40_41))) (= g_s87_92 (|-->| g_s26_27 g_s88_91)) (mem g_s89_93 g_s87_92) (= g_s90_94 (|-->| g_s24_25 g_s24_25)) (mem g_s91_95 g_s90_94) (= g_s91_95 (set_prod g_s24_25 (SET g_s40_41))) (= g_s92_96 (|-->| g_s25_26 g_s24_25)) (mem g_s93_97 g_s92_96) (= g_s93_97 (set_prod g_s25_26 (SET g_s40_41))) (= g_s94_98 (|-->| g_s25_26 g_s25_26)) (mem g_s95_99 g_s94_98) (= g_s95_99 (set_prod g_s25_26 (SET g_s43_44))) (= g_s96_100 (|-->| g_s23_24 g_s22_23)) (mem g_s97_101 g_s96_100) (= g_s97_101 (set_prod g_s23_24 (SET g_s34_35))) (= g_s98_102 (|-->| g_s25_26 INT)) (mem g_s99_103 g_s98_102) (= g_s99_103 (set_prod g_s25_26 (SET e0))) (= g_s100_104 (|-->| (dom g_s52_56) g_s20_21)) (mem g_s101_105 g_s100_104) (= g_s102_106 (|-->| (dom g_s53_57) g_s21_22)) (mem g_s103_107 g_s102_106) (= g_s104_109 (|-->| (dom g_s52_56) g_s105_108)) (mem g_s106_110 g_s104_109) (= g_s107_111 (|-->| (dom g_s55_59) g_s22_23)) (mem g_s108_112 g_s107_111) (= g_s109_113 (|-->| (dom g_s56_60) g_s23_24)) (mem g_s110_114 g_s109_113) (= g_s111_115 (|-->| (dom g_s58_62) g_s24_25)) (mem g_s112_116 g_s111_115) (= g_s113_117 (|-->| (dom g_s59_63) g_s25_26)) (mem g_s114_118 g_s113_117) (= g_s115_119 (|-->| (dom g_s63_67) g_s28_29)) (mem g_s116_120 g_s115_119) (= g_s117_121 (|-->| g_s24_25 BOOL)) (= g_s118_122 (|-->| g_s24_25 NAT)) (mem g_s119_123 g_s117_121) (= g_s119_123 (set_prod g_s24_25 (SET FALSE))) (mem g_s120_124 g_s118_122) (= g_s121_125 (|-->| g_s25_26 BOOL)) (mem g_s122_126 g_s121_125) (= g_s122_126 (set_prod g_s25_26 (SET FALSE))) (= g_s123_127 (|-->| g_s24_25 g_s22_23)) (mem g_s124_128 g_s123_127) (= g_s125_129 (|-->| g_s25_26 g_s23_24)) (mem g_s126_130 g_s125_129) (= g_s126_130 (set_prod g_s25_26 (SET g_s37_38))) (= g_s127_131 (|-->| g_s24_25 g_s88_91)) (mem g_s128_132 g_s127_131) (= g_s129_133 (|-->| g_s24_25 g_s0_1)) (mem g_s130_134 g_s129_133) (= g_s131_135 (|-->| g_s25_26 g_s3_4)) (mem g_s132_136 g_s131_135) (= g_s132_136 (set_prod g_s25_26 (SET g_s4_5))) (= g_s133_138 (|-->| g_s21_22 g_s134_137)) (mem g_s135_139 g_s133_138) (= g_s135_139 (set_prod g_s21_22 (SET g_s136_140))) (= g_s137_141 (|-->| g_s134_137 NAT)) (= g_s138_142 (|-->| g_s22_23 g_s105_108)) (mem g_s139_143 g_s138_142) (= g_s140_144 (|-->| g_s22_23 g_s20_21)) (mem g_s141_145 g_s140_144) (= g_s142_146 (|-->| g_s23_24 g_s21_22)) (mem g_s143_147 g_s142_146) (= g_s143_147 (set_prod g_s23_24 (SET g_s46_47))) (= g_s144_148 (|-->| g_s23_24 g_s25_26)) (mem g_s145_149 g_s144_148) (= g_s145_149 (set_prod g_s23_24 (SET g_s43_44))) (= g_s146_150 (|-->| g_s23_24 g_s23_24)) (mem g_s147_151 g_s146_150) (= g_s147_151 (set_prod g_s23_24 (SET g_s37_38))) (mem g_s148_152 NAT1) (|<i| g_s148_152 MaxInt) (mem g_s149_153 NAT1) (|<i| g_s149_153 MaxInt) (mem g_s150_154 NAT1) (|<i| g_s150_154 MaxInt) (mem g_s151_155 NAT) (|<i| g_s151_155 MaxInt) (mem g_s152_156 NAT) (|<i| g_s152_156 MaxInt) (mem g_s153_157 NAT) (|<i| g_s153_157 MaxInt) (mem g_s154_158 NAT) (|<i| g_s154_158 MaxInt) (= g_s155_159 (|-->| g_s22_23 (|-->| (interval e54 g_s148_152) g_s24_25))) (mem g_s156_160 g_s155_159) (= g_s157_161 (|-->| (interval e54 g_s149_153) g_s25_26)) (mem g_s158_162 g_s157_161) (= g_s159_163 (|-->| (interval e54 g_s151_155) g_s25_26)) (mem g_s160_164 g_s159_163) (= g_s161_165 (|-->| (interval e54 g_s154_158) g_s21_22)) (mem g_s162_166 g_s161_165) (= g_s163_167 (|-->| (interval e54 g_s152_156) g_s23_24)) (mem g_s164_168 g_s163_167) (= g_s165_169 (|-->| (interval e54 g_s153_157) g_s25_26)) (mem g_s166_170 g_s165_169) (= g_s167_171 (|-->| (interval e54 g_s153_157) g_s23_24)) (mem g_s168_172 g_s167_171) (= g_s169_173 (|-->| g_s22_23 NAT)) (mem g_s170_174 g_s169_173) (= g_s170_174 (set_prod g_s22_23 (SET e0))) (= g_s171_175 (|-->| g_s23_24 INT)) (= g_s172_176 (|-->| g_s23_24 BOOL)) (mem g_s173_177 g_s171_175) (= g_s173_177 (set_prod g_s23_24 (SET e178))) (mem g_s174_179 g_s172_176) (= g_s174_179 (set_prod g_s23_24 (SET FALSE))) (mem g_s175_180 NAT1) (|<=i| g_s175_180 (size g_s55_59)) (mem g_s176_181 NAT1) (|<=i| g_s176_181 (size g_s56_60)) (= g_s177_182 (|-->| g_s20_21 (|-->| (interval e54 g_s175_180) g_s22_23))) (mem g_s178_183 g_s177_182) (= g_s179_184 (|-->| g_s20_21 INT)) (mem g_s180_185 g_s179_184) (= g_s180_185 (set_prod g_s20_21 (SET e0))) (= g_s181_186 (|-->| g_s21_22 INT)) (mem g_s182_187 g_s181_186) (= g_s182_187 (set_prod g_s21_22 (SET e0))) (= g_s183_188 (id g_s50_52))))
(define-fun |def_seext| () Bool  (= g_s0_1 (SET (mapplet g_s2_3 g_s1_2))))
(define-fun |def_lprp| () Bool (and (subset g_s184_189 g_s3_4) (subset g_s185_190 g_s3_4) (subset g_s186_191 g_s3_4) (mem g_s187_192 (|-->| (set_prod (set_prod (set_prod g_s0_1 BOOL) BOOL) g_s50_52) g_s3_4)) (mem g_s188_193 (|-->| g_s3_4 g_s0_1)) (= (composition g_s187_192 g_s188_193) e194) (= g_s185_190 (image (inverse g_s188_193) (SET g_s1_2))) (= g_s186_191 (image (inverse g_s188_193) (SET g_s2_3))) (mem g_s193_195 (|-->| g_s3_4 BOOL)) (= (composition g_s187_192 g_s193_195) e196) (mem g_s194_197 (|-->| g_s3_4 BOOL)) (= (composition g_s187_192 g_s194_197) e198) (= g_s184_189 (image (inverse g_s194_197) (SET TRUE))) (mem g_s195_199 (|-->| g_s3_4 g_s50_52)) (= (composition g_s187_192 g_s195_199) e200) (mem g_s196_201 (|-->| g_s3_4 g_s3_4)) (= (ran (composition g_s196_201 g_s193_195)) (SET TRUE)) (= (composition g_s196_201 g_s188_193) g_s188_193) (= (composition g_s196_201 g_s194_197) g_s194_197) (= (composition g_s196_201 g_s195_199) g_s195_199) (mem g_s197_202 (|-->| g_s3_4 g_s3_4)) (= (ran (composition g_s197_202 g_s194_197)) (SET FALSE)) (= (composition g_s197_202 g_s188_193) g_s188_193) (= (composition g_s197_202 g_s193_195) g_s193_195) (= (composition g_s197_202 g_s195_199) g_s195_199) (mem g_s198_203 (|-->| g_s3_4 g_s3_4)) (= (ran (composition g_s198_203 g_s194_197)) (SET TRUE)) (= (composition g_s198_203 g_s188_193) g_s188_193) (= (composition g_s198_203 g_s193_195) g_s193_195) (= (composition g_s198_203 g_s195_199) g_s195_199) (mem g_s199_204 (|-->| g_s3_4 g_s3_4)) (= (ran (composition g_s199_204 g_s195_199)) (SET e51)) (= (composition g_s199_204 g_s188_193) g_s188_193) (= (composition g_s199_204 g_s193_195) g_s193_195) (= (composition g_s199_204 g_s194_197) g_s194_197) (mem g_s200_205 (|-->| g_s3_4 g_s3_4)) (= (ran (composition g_s200_205 g_s195_199)) (SET e0)) (= (composition g_s200_205 g_s188_193) g_s188_193) (= (composition g_s200_205 g_s193_195) g_s193_195) (= (composition g_s200_205 g_s194_197) g_s194_197)))
(define-fun |def_inprp| () Bool true)
(define-fun |def_inext| () Bool true)
(define-fun |def_inv| () Bool true)
(define-fun |def_ass| () Bool true)
(define-fun |def_cst| () Bool true)
(define-fun |def_sets| () Bool true)
; PO group 0 
(push 1)
(assert |def_B definitions|)
(assert |def_ctx|)
(assert |def_cst|)
(assert |def_lprp|)
(assert |def_inprp|)
(assert |def_inext|)
(assert |def_seext|)
(assert |def_inv|)
(assert |def_ass|)
(assert (mem g_s202_206 g_s0_1))
(assert (mem g_s203_207 BOOL))
(assert (mem g_s204_208 BOOL))
(assert (mem g_s205_209 g_s3_4))
(assert (mem g_s206_210 g_s50_52))
; PO 1 in group 0
(push 1)
(assert (not (mem g_s187_192 (|+->| (dom g_s187_192) (ran g_s187_192)))))
(check-sat)
(pop 1)
; PO 2 in group 0
(push 1)
(assert (not (mem (mapplet (mapplet (mapplet g_s202_206 g_s203_207) g_s204_208) g_s206_210) (dom g_s187_192))))
(set-info :status unknown)
(check-sat)
(pop 1)
(pop 1)
; PO group 1 
(push 1)
(assert |def_B definitions|)
(assert |def_ctx|)
(assert |def_cst|)
(assert |def_lprp|)
(assert |def_inprp|)
(assert |def_inext|)
(assert |def_seext|)
(assert |def_inv|)
(assert |def_ass|)
(assert (mem g_s209_211 g_s3_4))
(assert (mem g_s205_212 BOOL))
; PO 1 in group 1
(push 1)
(assert (not (mem g_s194_197 (|+->| (dom g_s194_197) (ran g_s194_197)))))
(set-info :status unknown)
(check-sat)
(pop 1)
; PO 2 in group 1
(push 1)
(assert (not (mem g_s209_211 (dom g_s194_197))))
(set-info :status unknown)
(check-sat)
(pop 1)
(pop 1)
; PO group 2 
(push 1)
(assert |def_B definitions|)
(assert |def_ctx|)
(assert |def_cst|)
(assert |def_lprp|)
(assert |def_inprp|)
(assert |def_inext|)
(assert |def_seext|)
(assert |def_inv|)
(assert |def_ass|)
(assert (mem g_s209_211 g_s3_4))
(assert (mem g_s205_213 g_s0_1))
; PO 1 in group 2
(push 1)
(assert (not (mem g_s188_193 (|+->| (dom g_s188_193) (ran g_s188_193)))))
(set-info :status unknown)
(check-sat)
(pop 1)
; PO 2 in group 2
(push 1)
(assert (not (mem g_s209_211 (dom g_s188_193))))
(set-info :status unknown)
(check-sat)
(pop 1)
(pop 1)
; PO group 3 
(push 1)
(assert |def_B definitions|)
(assert |def_ctx|)
(assert |def_cst|)
(assert |def_lprp|)
(assert |def_inprp|)
(assert |def_inext|)
(assert |def_seext|)
(assert |def_inv|)
(assert |def_ass|)
(assert (mem g_s209_211 g_s3_4))
(assert (mem g_s205_209 g_s3_4))
; PO 1 in group 3
(push 1)
(assert (not (mem g_s197_202 (|+->| (dom g_s197_202) (ran g_s197_202)))))
(set-info :status unknown)
(check-sat)
(pop 1)
; PO 2 in group 3
(push 1)
(assert (not (mem g_s209_211 (dom g_s197_202))))
(set-info :status unknown)
(check-sat)
(pop 1)
(pop 1)
; PO group 4 
(push 1)
(assert |def_B definitions|)
(assert |def_ctx|)
(assert |def_cst|)
(assert |def_lprp|)
(assert |def_inprp|)
(assert |def_inext|)
(assert |def_seext|)
(assert |def_inv|)
(assert |def_ass|)
(assert (mem g_s209_211 g_s3_4))
(assert (mem g_s205_209 g_s3_4))
; PO 1 in group 4
(push 1)
(assert (not (mem g_s198_203 (|+->| (dom g_s198_203) (ran g_s198_203)))))
(set-info :status unknown)
(check-sat)
(pop 1)
; PO 2 in group 4
(push 1)
(assert (not (mem g_s209_211 (dom g_s198_203))))
(set-info :status unknown)
(check-sat)
(pop 1)
(pop 1)
; PO group 5 
(push 1)
(assert |def_B definitions|)
(assert |def_ctx|)
(assert |def_cst|)
(assert |def_lprp|)
(assert |def_inprp|)
(assert |def_inext|)
(assert |def_seext|)
(assert |def_inv|)
(assert |def_ass|)
(assert (mem g_s209_211 g_s3_4))
(assert (mem g_s205_209 g_s3_4))
; PO 1 in group 5
(push 1)
(assert (not (mem g_s196_201 (|+->| (dom g_s196_201) (ran g_s196_201)))))
(set-info :status unknown)
(check-sat)
(pop 1)
; PO 2 in group 5
(push 1)
(assert (not (mem g_s209_211 (dom g_s196_201))))
(set-info :status unknown)
(check-sat)
(pop 1)
(pop 1)
; PO group 6 
(push 1)
(assert |def_B definitions|)
(assert |def_ctx|)
(assert |def_cst|)
(assert |def_lprp|)
(assert |def_inprp|)
(assert |def_inext|)
(assert |def_seext|)
(assert |def_inv|)
(assert |def_ass|)
(assert (mem g_s209_211 g_s3_4))
(assert (mem g_s205_212 BOOL))
; PO 1 in group 6
(push 1)
(assert (not (mem g_s193_195 (|+->| (dom g_s193_195) (ran g_s193_195)))))
(set-info :status unknown)
(check-sat)
(pop 1)
; PO 2 in group 6
(push 1)
(assert (not (mem g_s209_211 (dom g_s193_195))))
(set-info :status unknown)
(check-sat)
(pop 1)
(pop 1)
; PO group 7 
(push 1)
(assert |def_B definitions|)
(assert |def_ctx|)
(assert |def_cst|)
(assert |def_lprp|)
(assert |def_inprp|)
(assert |def_inext|)
(assert |def_seext|)
(assert |def_inv|)
(assert |def_ass|)
(assert (mem g_s209_211 g_s3_4))
(assert (mem g_s205_214 INT))
; PO 1 in group 7
(push 1)
(assert (not (mem g_s195_199 (|+->| (dom g_s195_199) (ran g_s195_199)))))
(set-info :status unknown)
(check-sat)
(pop 1)
; PO 2 in group 7
(push 1)
(assert (not (mem g_s209_211 (dom g_s195_199))))
(set-info :status unknown)
(check-sat)
(pop 1)
(pop 1)
; PO group 8 
(push 1)
(assert |def_B definitions|)
(assert |def_ctx|)
(assert |def_cst|)
(assert |def_lprp|)
(assert |def_inprp|)
(assert |def_inext|)
(assert |def_seext|)
(assert |def_inv|)
(assert |def_ass|)
(assert (mem g_s209_211 g_s3_4))
(assert (mem g_s205_209 g_s3_4))
; PO 1 in group 8
(push 1)
(assert (not (mem g_s199_204 (|+->| (dom g_s199_204) (ran g_s199_204)))))
(set-info :status unknown)
(check-sat)
(pop 1)
; PO 2 in group 8
(push 1)
(assert (not (mem g_s209_211 (dom g_s199_204))))
(set-info :status unknown)
(check-sat)
(pop 1)
(pop 1)
; PO group 9 
(push 1)
(assert |def_B definitions|)
(assert |def_ctx|)
(assert |def_cst|)
(assert |def_lprp|)
(assert |def_inprp|)
(assert |def_inext|)
(assert |def_seext|)
(assert |def_inv|)
(assert |def_ass|)
(assert (mem g_s209_211 g_s3_4))
(assert (mem g_s205_209 g_s3_4))
; PO 1 in group 9
(push 1)
(assert (not (mem g_s200_205 (|+->| (dom g_s200_205) (ran g_s200_205)))))
(set-info :status unknown)
(check-sat)
(pop 1)
; PO 2 in group 9
(push 1)
(assert (not (mem g_s209_211 (dom g_s200_205))))
(set-info :status unknown)
(check-sat)
(pop 1)
(pop 1)
(exit)